files/upTests/___simple/set_ExplicitVarSize/0001.eprime
language ESSENCE' 1.0

find x_SetOccurrence: matrix indexed by [int(0..9)] of bool
such that
    (sum v__0 : int(0..9) . x_SetOccurrence[v__0]) >= 2,
    forAll v__0 : int(0..9) . x_SetOccurrence[v__0] -> v__0 > 4
