files/upTests/___simple/set_ExplicitVarSize/0001.eprime.solution
language ESSENCE' 1.0
$ minion Nodes: 14
$ minion TotalTime: 0.001323
$ Savile Row TotalTime: 0.247
letting x_SetExplicitVarSize_tuple2 be [0, 0, 0, 0, 0, 0, 0, 0, 5, 6;int(1..10)]
letting x_SetExplicitVarSize_tuple1 be [false, false, false, false, false, false, false, false, true, true;int(1..10)]
